src/STAR-Searcher/Star-Searcher/search_planner/search_planner/utils/lkh_tsp_solver/resource/single.tsp
NAME : single
TYPE : ATSP
DIMENSION : 5
EDGE_WEIGHT_TYPE : EXPLICIT
EDGE_WEIGHT_FORMAT : FULL_MATRIX
EDGE_WEIGHT_SECTION
0 498 317 228 6553600 
6553600 0 422 182 251 
6553600 422 0 63 190 
6553600 182 63 0 216 
0 6553600 6553600 6553600 0 
EOF