src/STAR-Searcher/Star-Searcher/search_planner/search_planner/utils/lkh_tsp_solver/resource/single.txt
NAME : single.813.tour
COMMENT : Length = 813
COMMENT : Found by LKH [Keld Helsgaun] Thu Mar 19 15:21:51 2026
TYPE : TOUR
DIMENSION : 5
TOUR_SECTION
1
3
4
2
5
-1
EOF
